************************************************************************
file with basedata            : mb3_.bas
initial value random generator: 1880398242
************************************************************************
projects                      :  1
jobs (incl. supersource/sink ):  12
horizon                       :  82
RESOURCES
  - renewable                 :  2   R
  - nonrenewable              :  2   N
  - doubly constrained        :  0   D
************************************************************************
PROJECT INFORMATION:
pronr.  #jobs rel.date duedate tardcost  MPM-Time
    1     10      0       15        5       15
************************************************************************
PRECEDENCE RELATIONS:
jobnr.    #modes  #successors   successors
   1        1          3           2   3   4
   2        3          3           5   8   9
   3        3          1          11
   4        3          2           9  10
   5        3          2           6  11
   6        3          1           7
   7        3          1          10
   8        3          2          10  11
   9        3          1          12
  10        3          1          12
  11        3          1          12
  12        1          0        
************************************************************************
REQUESTS/DURATIONS:
jobnr. mode duration  R 1  R 2  N 1  N 2
------------------------------------------------------------------------
  1      1     0       0    0    0    0
  2      1     2       5    0    8   10
         2     4       4    0    4    8
         3     4       5    0    7    7
  3      1     9       9    0    7    7
         2    10       6    0    2    6
         3    10       0    7    5    5
  4      1     4       0    1    9    9
         2     9       6    0    9    7
         3    10       6    0    7    3
  5      1     5       0    8    4    9
         2    10       0    1    1    9
         3    10       5    0    1    8
  6      1     1       0   10    8    5
         2     4       0    9    8    5
         3    10       0    6    8    5
  7      1     2       0    4    7    6
         2     2       5    0    9    7
         3     3       4    0    6    5
  8      1     2       8    0    3   10
         2     9       6    0    2   10
         3     9       4    0    3   10
  9      1     1      10    0    7    7
         2     8       0    6    6    6
         3     9       0    2    4    4
 10      1     2       1    0    6    8
         2     2       0    2    4    8
         3     9       1    0    2    8
 11      1     6       9    0    9    8
         2     6       0    8    9    9
         3     8       0    8    9    6
 12      1     0       0    0    0    0
************************************************************************
RESOURCEAVAILABILITIES:
  R 1  R 2  N 1  N 2
    9    9   70   81
************************************************************************
MAXIMAL LAGS:
from  to  type  delay
    1   12   ES      0
    1    2   ES      0
    2   12   ES      0
    1    3   ES      0
    3   12   ES      0
    1    4   ES      0
    4   12   ES      0
    1    5   ES      0
    5   12   ES      0
    1    6   ES      0
    6   12   ES      0
    1    7   ES      0
    7   12   ES      0
    1    8   ES      0
    8   12   ES      0
    1    9   ES      0
    9   12   ES      0
    1   10   ES      0
   10   12   ES      0
    1   11   ES      0
   11   12   ES      0
    1   12   ES      0
    2    5   SS     -3
    2    5   SE      0
    5    2   SE      0
    2    5   ES      0
    2    5   EE      9
    2    8   SS     -4
    2    8   SE     11
    2    8   ES      5
    2    8   EE      7
    2    9   SS      1
    2    9   SE      1
    2    9   ES      3
    2    9   EE      1
    3   11   SS    -11
    3   11   SE     -2
    3   11   ES      1
    3   11   EE     -4
    4    9   SS     -7
    4    9   SE    -12
    4    9   ES     -3
    4    9   EE     -2
    4   10   SS      1
    4   10   SE     -1
    4   10   ES      3
    4   10   EE     12
    5    6   SS      2
    5    6   SE     -2
    5    6   ES      5
    5    6   EE    -12
    5   11   SS      6
    5   11   SE      2
    5   11   ES     -3
    5   11   EE     12
    6    7   SS     -2
    6    7   SE     -5
    6    7   ES     -6
    6    7   EE      4
    7   10   SS      7
    7   10   SE    -12
    7   10   ES      1
    7   10   EE     -8
    8   10   SS     -5
    8   10   SE     -1
    8   10   ES     -4
    8   10   EE      0
    8   11   SS      0
    8   11   SE     -8
    8   11   ES      8
    8   11   EE     -7
************************************************************************
